$instance size is  1000
letting capacity be  252984
letting items be new type enum { 
a1,a2,a3,a4,a5,a6,a7,a8,a9,a10,a11,a12,a13,a14,a15,a16,a17,a18,a19,a20,a21,a22,a23,a24,a25,a26,a27,a28,a29,a30,a31,a32,a33,a34,a35,a36,a37,a38,a39,a40,a41,a42,a43,a44,a45,a46,a47,a48,a49,a50,a51,a52,a53,a54,a55,a56,a57,a58,a59,a60,a61,a62,a63,a64,a65,a66,a67,a68,a69,a70,a71,a72,a73,a74,a75,a76,a77,a78,a79,a80,a81,a82,a83,a84,a85,a86,a87,a88,a89,a90,a91,a92,a93,a94,a95,a96,a97,a98,a99,a100,a101,a102,a103,a104,a105,a106,a107,a108,a109,a110,a111,a112,a113,a114,a115,a116,a117,a118,a119,a120,a121,a122,a123,a124,a125,a126,a127,a128,a129,a130,a131,a132,a133,a134,a135,a136,a137,a138,a139,a140,a141,a142,a143,a144,a145,a146,a147,a148,a149,a150,a151,a152,a153,a154,a155,a156,a157,a158,a159,a160,a161,a162,a163,a164,a165,a166,a167,a168,a169,a170,a171,a172,a173,a174,a175,a176,a177,a178,a179,a180,a181,a182,a183,a184,a185,a186,a187,a188,a189,a190,a191,a192,a193,a194,a195,a196,a197,a198,a199,a200,a201,a202,a203,a204,a205,a206,a207,a208,a209,a210,a211,a212,a213,a214,a215,a216,a217,a218,a219,a220,a221,a222,a223,a224,a225,a226,a227,a228,a229,a230,a231,a232,a233,a234,a235,a236,a237,a238,a239,a240,a241,a242,a243,a244,a245,a246,a247,a248,a249,a250,a251,a252,a253,a254,a255,a256,a257,a258,a259,a260,a261,a262,a263,a264,a265,a266,a267,a268,a269,a270,a271,a272,a273,a274,a275,a276,a277,a278,a279,a280,a281,a282,a283,a284,a285,a286,a287,a288,a289,a290,a291,a292,a293,a294,a295,a296,a297,a298,a299,a300,a301,a302,a303,a304,a305,a306,a307,a308,a309,a310,a311,a312,a313,a314,a315,a316,a317,a318,a319,a320,a321,a322,a323,a324,a325,a326,a327,a328,a329,a330,a331,a332,a333,a334,a335,a336,a337,a338,a339,a340,a341,a342,a343,a344,a345,a346,a347,a348,a349,a350,a351,a352,a353,a354,a355,a356,a357,a358,a359,a360,a361,a362,a363,a364,a365,a366,a367,a368,a369,a370,a371,a372,a373,a374,a375,a376,a377,a378,a379,a380,a381,a382,a383,a384,a385,a386,a387,a388,a389,a390,a391,a392,a393,a394,a395,a396,a397,a398,a399,a400,a401,a402,a403,a404,a405,a406,a407,a408,a409,a410,a411,a412,a413,a414,a415,a416,a417,a418,a419,a420,a421,a422,a423,a424,a425,a426,a427,a428,a429,a430,a431,a432,a433,a434,a435,a436,a437,a438,a439,a440,a441,a442,a443,a444,a445,a446,a447,a448,a449,a450,a451,a452,a453,a454,a455,a456,a457,a458,a459,a460,a461,a462,a463,a464,a465,a466,a467,a468,a469,a470,a471,a472,a473,a474,a475,a476,a477,a478,a479,a480,a481,a482,a483,a484,a485,a486,a487,a488,a489,a490,a491,a492,a493,a494,a495,a496,a497,a498,a499,a500,a501,a502,a503,a504,a505,a506,a507,a508,a509,a510,a511,a512,a513,a514,a515,a516,a517,a518,a519,a520,a521,a522,a523,a524,a525,a526,a527,a528,a529,a530,a531,a532,a533,a534,a535,a536,a537,a538,a539,a540,a541,a542,a543,a544,a545,a546,a547,a548,a549,a550,a551,a552,a553,a554,a555,a556,a557,a558,a559,a560,a561,a562,a563,a564,a565,a566,a567,a568,a569,a570,a571,a572,a573,a574,a575,a576,a577,a578,a579,a580,a581,a582,a583,a584,a585,a586,a587,a588,a589,a590,a591,a592,a593,a594,a595,a596,a597,a598,a599,a600,a601,a602,a603,a604,a605,a606,a607,a608,a609,a610,a611,a612,a613,a614,a615,a616,a617,a618,a619,a620,a621,a622,a623,a624,a625,a626,a627,a628,a629,a630,a631,a632,a633,a634,a635,a636,a637,a638,a639,a640,a641,a642,a643,a644,a645,a646,a647,a648,a649,a650,a651,a652,a653,a654,a655,a656,a657,a658,a659,a660,a661,a662,a663,a664,a665,a666,a667,a668,a669,a670,a671,a672,a673,a674,a675,a676,a677,a678,a679,a680,a681,a682,a683,a684,a685,a686,a687,a688,a689,a690,a691,a692,a693,a694,a695,a696,a697,a698,a699,a700,a701,a702,a703,a704,a705,a706,a707,a708,a709,a710,a711,a712,a713,a714,a715,a716,a717,a718,a719,a720,a721,a722,a723,a724,a725,a726,a727,a728,a729,a730,a731,a732,a733,a734,a735,a736,a737,a738,a739,a740,a741,a742,a743,a744,a745,a746,a747,a748,a749,a750,a751,a752,a753,a754,a755,a756,a757,a758,a759,a760,a761,a762,a763,a764,a765,a766,a767,a768,a769,a770,a771,a772,a773,a774,a775,a776,a777,a778,a779,a780,a781,a782,a783,a784,a785,a786,a787,a788,a789,a790,a791,a792,a793,a794,a795,a796,a797,a798,a799,a800,a801,a802,a803,a804,a805,a806,a807,a808,a809,a810,a811,a812,a813,a814,a815,a816,a817,a818,a819,a820,a821,a822,a823,a824,a825,a826,a827,a828,a829,a830,a831,a832,a833,a834,a835,a836,a837,a838,a839,a840,a841,a842,a843,a844,a845,a846,a847,a848,a849,a850,a851,a852,a853,a854,a855,a856,a857,a858,a859,a860,a861,a862,a863,a864,a865,a866,a867,a868,a869,a870,a871,a872,a873,a874,a875,a876,a877,a878,a879,a880,a881,a882,a883,a884,a885,a886,a887,a888,a889,a890,a891,a892,a893,a894,a895,a896,a897,a898,a899,a900,a901,a902,a903,a904,a905,a906,a907,a908,a909,a910,a911,a912,a913,a914,a915,a916,a917,a918,a919,a920,a921,a922,a923,a924,a925,a926,a927,a928,a929,a930,a931,a932,a933,a934,a935,a936,a937,a938,a939,a940,a941,a942,a943,a944,a945,a946,a947,a948,a949,a950,a951,a952,a953,a954,a955,a956,a957,a958,a959,a960,a961,a962,a963,a964,a965,a966,a967,a968,a969,a970,a971,a972,a973,a974,a975,a976,a977,a978,a979,a980,a981,a982,a983,a984,a985,a986,a987,a988,a989,a990,a991,a992,a993,a994,a995,a996,a997,a998,a999,a1000
}
letting weight be function (
a1 --> 586,a2 --> 915,a3 --> 156,a4 --> 272,a5 --> 278,a6 --> 629,a7 --> 198,a8 --> 632,a9 --> 435,a10 --> 991,a11 --> 971,a12 --> 15,a13 --> 383,a14 --> 822,a15 --> 83,a16 --> 640,a17 --> 170,a18 --> 470,a19 --> 687,a20 --> 6,a21 --> 286,a22 --> 347,a23 --> 472,a24 --> 564,a25 --> 693,a26 --> 483,a27 --> 404,a28 --> 532,a29 --> 294,a30 --> 917,a31 --> 377,a32 --> 716,a33 --> 80,a34 --> 931,a35 --> 600,a36 --> 217,a37 --> 205,a38 --> 979,a39 --> 683,a40 --> 904,a41 --> 568,a42 --> 986,a43 --> 134,a44 --> 503,a45 --> 63,a46 --> 927,a47 --> 865,a48 --> 913,a49 --> 185,a50 --> 30,a51 --> 939,a52 --> 479,a53 --> 215,a54 --> 409,a55 --> 1000,a56 --> 494,a57 --> 423,a58 --> 560,a59 --> 92,a60 --> 199,a61 --> 420,a62 --> 698,a63 --> 278,a64 --> 394,a65 --> 623,a66 --> 729,a67 --> 309,a68 --> 874,a69 --> 865,a70 --> 538,a71 --> 877,a72 --> 307,a73 --> 285,a74 --> 474,a75 --> 171,a76 --> 390,a77 --> 338,a78 --> 9,a79 --> 20,a80 --> 884,a81 --> 271,a82 --> 754,a83 --> 402,a84 --> 702,a85 --> 925,a86 --> 25,a87 --> 686,a88 --> 547,a89 --> 168,a90 --> 259,a91 --> 166,a92 --> 706,a93 --> 590,a94 --> 449,a95 --> 184,a96 --> 147,a97 --> 781,a98 --> 36,a99 --> 165,a100 --> 361,a101 --> 153,a102 --> 226,a103 --> 807,a104 --> 666,a105 --> 859,a106 --> 767,a107 --> 978,a108 --> 13,a109 --> 698,a110 --> 869,a111 --> 998,a112 --> 770,a113 --> 174,a114 --> 780,a115 --> 434,a116 --> 149,a117 --> 71,a118 --> 89,a119 --> 466,a120 --> 131,a121 --> 546,a122 --> 699,a123 --> 610,a124 --> 587,a125 --> 236,a126 --> 881,a127 --> 161,a128 --> 542,a129 --> 116,a130 --> 21,a131 --> 631,a132 --> 607,a133 --> 532,a134 --> 707,a135 --> 510,a136 --> 52,a137 --> 321,a138 --> 482,a139 --> 483,a140 --> 722,a141 --> 230,a142 --> 457,a143 --> 726,a144 --> 76,a145 --> 180,a146 --> 115,a147 --> 213,a148 --> 555,a149 --> 541,a150 --> 419,a151 --> 493,a152 --> 15,a153 --> 996,a154 --> 864,a155 --> 601,a156 --> 580,a157 --> 678,a158 --> 457,a159 --> 400,a160 --> 909,a161 --> 659,a162 --> 354,a163 --> 778,a164 --> 349,a165 --> 93,a166 --> 405,a167 --> 411,a168 --> 616,a169 --> 966,a170 --> 913,a171 --> 511,a172 --> 326,a173 --> 518,a174 --> 798,a175 --> 395,a176 --> 680,a177 --> 243,a178 --> 102,a179 --> 746,a180 --> 617,a181 --> 855,a182 --> 518,a183 --> 477,a184 --> 613,a185 --> 981,a186 --> 378,a187 --> 233,a188 --> 796,a189 --> 308,a190 --> 419,a191 --> 757,a192 --> 64,a193 --> 674,a194 --> 484,a195 --> 984,a196 --> 154,a197 --> 697,a198 --> 968,a199 --> 695,a200 --> 872,a201 --> 956,a202 --> 454,a203 --> 92,a204 --> 666,a205 --> 522,a206 --> 597,a207 --> 231,a208 --> 728,a209 --> 954,a210 --> 743,a211 --> 785,a212 --> 117,a213 --> 349,a214 --> 961,a215 --> 596,a216 --> 783,a217 --> 399,a218 --> 321,a219 --> 940,a220 --> 235,a221 --> 390,a222 --> 719,a223 --> 976,a224 --> 117,a225 --> 961,a226 --> 708,a227 --> 776,a228 --> 78,a229 --> 33,a230 --> 53,a231 --> 256,a232 --> 459,a233 --> 530,a234 --> 976,a235 --> 452,a236 --> 285,a237 --> 299,a238 --> 389,a239 --> 42,a240 --> 539,a241 --> 601,a242 --> 741,a243 --> 130,a244 --> 856,a245 --> 456,a246 --> 526,a247 --> 824,a248 --> 579,a249 --> 305,a250 --> 534,a251 --> 520,a252 --> 26,a253 --> 716,a254 --> 347,a255 --> 753,a256 --> 85,a257 --> 848,a258 --> 616,a259 --> 707,a260 --> 273,a261 --> 237,a262 --> 370,a263 --> 88,a264 --> 194,a265 --> 841,a266 --> 183,a267 --> 846,a268 --> 831,a269 --> 703,a270 --> 733,a271 --> 922,a272 --> 617,a273 --> 320,a274 --> 297,a275 --> 550,a276 --> 195,a277 --> 246,a278 --> 749,a279 --> 259,a280 --> 579,a281 --> 148,a282 --> 607,a283 --> 551,a284 --> 871,a285 --> 695,a286 --> 504,a287 --> 840,a288 --> 113,a289 --> 207,a290 --> 458,a291 --> 967,a292 --> 579,a293 --> 358,a294 --> 593,a295 --> 222,a296 --> 11,a297 --> 47,a298 --> 59,a299 --> 73,a300 --> 607,a301 --> 936,a302 --> 375,a303 --> 928,a304 --> 794,a305 --> 568,a306 --> 569,a307 --> 259,a308 --> 269,a309 --> 593,a310 --> 284,a311 --> 924,a312 --> 222,a313 --> 966,a314 --> 606,a315 --> 944,a316 --> 412,a317 --> 125,a318 --> 215,a319 --> 582,a320 --> 311,a321 --> 734,a322 --> 353,a323 --> 437,a324 --> 140,a325 --> 563,a326 --> 985,a327 --> 178,a328 --> 895,a329 --> 509,a330 --> 212,a331 --> 87,a332 --> 984,a333 --> 124,a334 --> 370,a335 --> 957,a336 --> 62,a337 --> 799,a338 --> 759,a339 --> 778,a340 --> 950,a341 --> 295,a342 --> 940,a343 --> 83,a344 --> 140,a345 --> 505,a346 --> 753,a347 --> 715,a348 --> 495,a349 --> 408,a350 --> 798,a351 --> 841,a352 --> 161,a353 --> 86,a354 --> 125,a355 --> 886,a356 --> 877,a357 --> 75,a358 --> 666,a359 --> 84,a360 --> 887,a361 --> 820,a362 --> 682,a363 --> 679,a364 --> 935,a365 --> 341,a366 --> 719,a367 --> 943,a368 --> 837,a369 --> 471,a370 --> 41,a371 --> 532,a372 --> 830,a373 --> 10,a374 --> 158,a375 --> 648,a376 --> 733,a377 --> 531,a378 --> 106,a379 --> 128,a380 --> 770,a381 --> 551,a382 --> 71,a383 --> 955,a384 --> 414,a385 --> 630,a386 --> 750,a387 --> 489,a388 --> 980,a389 --> 560,a390 --> 180,a391 --> 708,a392 --> 650,a393 --> 227,a394 --> 462,a395 --> 674,a396 --> 925,a397 --> 362,a398 --> 964,a399 --> 160,a400 --> 24,a401 --> 190,a402 --> 713,a403 --> 120,a404 --> 525,a405 --> 497,a406 --> 976,a407 --> 836,a408 --> 785,a409 --> 830,a410 --> 472,a411 --> 696,a412 --> 20,a413 --> 794,a414 --> 401,a415 --> 355,a416 --> 782,a417 --> 109,a418 --> 605,a419 --> 446,a420 --> 563,a421 --> 473,a422 --> 583,a423 --> 290,a424 --> 543,a425 --> 969,a426 --> 942,a427 --> 30,a428 --> 867,a429 --> 803,a430 --> 762,a431 --> 295,a432 --> 45,a433 --> 246,a434 --> 414,a435 --> 558,a436 --> 19,a437 --> 780,a438 --> 284,a439 --> 693,a440 --> 344,a441 --> 993,a442 --> 723,a443 --> 329,a444 --> 989,a445 --> 849,a446 --> 268,a447 --> 881,a448 --> 313,a449 --> 573,a450 --> 792,a451 --> 380,a452 --> 217,a453 --> 790,a454 --> 779,a455 --> 159,a456 --> 368,a457 --> 344,a458 --> 740,a459 --> 509,a460 --> 287,a461 --> 112,a462 --> 194,a463 --> 628,a464 --> 438,a465 --> 582,a466 --> 96,a467 --> 318,a468 --> 144,a469 --> 572,a470 --> 553,a471 --> 524,a472 --> 275,a473 --> 236,a474 --> 20,a475 --> 573,a476 --> 541,a477 --> 756,a478 --> 904,a479 --> 229,a480 --> 200,a481 --> 213,a482 --> 273,a483 --> 542,a484 --> 542,a485 --> 368,a486 --> 545,a487 --> 386,a488 --> 964,a489 --> 919,a490 --> 135,a491 --> 413,a492 --> 3,a493 --> 178,a494 --> 859,a495 --> 583,a496 --> 410,a497 --> 446,a498 --> 311,a499 --> 336,a500 --> 861,a501 --> 903,a502 --> 375,a503 --> 58,a504 --> 961,a505 --> 719,a506 --> 353,a507 --> 42,a508 --> 660,a509 --> 132,a510 --> 325,a511 --> 495,a512 --> 329,a513 --> 61,a514 --> 958,a515 --> 561,a516 --> 994,a517 --> 549,a518 --> 927,a519 --> 874,a520 --> 780,a521 --> 606,a522 --> 607,a523 --> 616,a524 --> 518,a525 --> 495,a526 --> 421,a527 --> 672,a528 --> 553,a529 --> 599,a530 --> 115,a531 --> 988,a532 --> 448,a533 --> 22,a534 --> 670,a535 --> 230,a536 --> 681,a537 --> 482,a538 --> 652,a539 --> 666,a540 --> 435,a541 --> 607,a542 --> 148,a543 --> 743,a544 --> 622,a545 --> 358,a546 --> 961,a547 --> 942,a548 --> 773,a549 --> 55,a550 --> 503,a551 --> 841,a552 --> 998,a553 --> 462,a554 --> 508,a555 --> 181,a556 --> 224,a557 --> 249,a558 --> 472,a559 --> 280,a560 --> 283,a561 --> 783,a562 --> 180,a563 --> 571,a564 --> 19,a565 --> 610,a566 --> 990,a567 --> 880,a568 --> 197,a569 --> 701,a570 --> 795,a571 --> 652,a572 --> 176,a573 --> 255,a574 --> 795,a575 --> 134,a576 --> 757,a577 --> 182,a578 --> 329,a579 --> 886,a580 --> 439,a581 --> 708,a582 --> 952,a583 --> 430,a584 --> 579,a585 --> 989,a586 --> 830,a587 --> 268,a588 --> 273,a589 --> 6,a590 --> 956,a591 --> 485,a592 --> 24,a593 --> 55,a594 --> 467,a595 --> 99,a596 --> 533,a597 --> 738,a598 --> 608,a599 --> 120,a600 --> 892,a601 --> 985,a602 --> 544,a603 --> 960,a604 --> 341,a605 --> 851,a606 --> 788,a607 --> 554,a608 --> 632,a609 --> 535,a610 --> 62,a611 --> 7,a612 --> 497,a613 --> 262,a614 --> 82,a615 --> 425,a616 --> 156,a617 --> 5,a618 --> 237,a619 --> 469,a620 --> 545,a621 --> 624,a622 --> 153,a623 --> 561,a624 --> 120,a625 --> 784,a626 --> 566,a627 --> 614,a628 --> 782,a629 --> 317,a630 --> 346,a631 --> 150,a632 --> 182,a633 --> 213,a634 --> 378,a635 --> 742,a636 --> 713,a637 --> 179,a638 --> 830,a639 --> 221,a640 --> 966,a641 --> 87,a642 --> 264,a643 --> 691,a644 --> 129,a645 --> 428,a646 --> 581,a647 --> 874,a648 --> 8,a649 --> 116,a650 --> 66,a651 --> 56,a652 --> 104,a653 --> 118,a654 --> 927,a655 --> 675,a656 --> 252,a657 --> 209,a658 --> 495,a659 --> 99,a660 --> 934,a661 --> 237,a662 --> 734,a663 --> 690,a664 --> 540,a665 --> 8,a666 --> 953,a667 --> 287,a668 --> 555,a669 --> 303,a670 --> 161,a671 --> 950,a672 --> 583,a673 --> 608,a674 --> 447,a675 --> 873,a676 --> 793,a677 --> 750,a678 --> 977,a679 --> 738,a680 --> 486,a681 --> 468,a682 --> 883,a683 --> 677,a684 --> 991,a685 --> 40,a686 --> 943,a687 --> 619,a688 --> 763,a689 --> 449,a690 --> 917,a691 --> 425,a692 --> 397,a693 --> 874,a694 --> 826,a695 --> 141,a696 --> 428,a697 --> 700,a698 --> 469,a699 --> 281,a700 --> 621,a701 --> 215,a702 --> 637,a703 --> 229,a704 --> 139,a705 --> 777,a706 --> 452,a707 --> 977,a708 --> 944,a709 --> 700,a710 --> 454,a711 --> 39,a712 --> 704,a713 --> 396,a714 --> 610,a715 --> 781,a716 --> 796,a717 --> 582,a718 --> 383,a719 --> 633,a720 --> 364,a721 --> 354,a722 --> 408,a723 --> 986,a724 --> 428,a725 --> 922,a726 --> 720,a727 --> 429,a728 --> 743,a729 --> 24,a730 --> 838,a731 --> 342,a732 --> 423,a733 --> 875,a734 --> 442,a735 --> 498,a736 --> 282,a737 --> 730,a738 --> 629,a739 --> 819,a740 --> 453,a741 --> 318,a742 --> 637,a743 --> 283,a744 --> 781,a745 --> 644,a746 --> 254,a747 --> 543,a748 --> 689,a749 --> 665,a750 --> 993,a751 --> 253,a752 --> 177,a753 --> 739,a754 --> 504,a755 --> 814,a756 --> 873,a757 --> 214,a758 --> 255,a759 --> 940,a760 --> 982,a761 --> 500,a762 --> 989,a763 --> 692,a764 --> 119,a765 --> 979,a766 --> 752,a767 --> 917,a768 --> 205,a769 --> 459,a770 --> 884,a771 --> 775,a772 --> 51,a773 --> 949,a774 --> 988,a775 --> 781,a776 --> 878,a777 --> 140,a778 --> 263,a779 --> 762,a780 --> 109,a781 --> 679,a782 --> 268,a783 --> 719,a784 --> 313,a785 --> 189,a786 --> 141,a787 --> 91,a788 --> 958,a789 --> 783,a790 --> 407,a791 --> 1,a792 --> 504,a793 --> 664,a794 --> 912,a795 --> 869,a796 --> 614,a797 --> 936,a798 --> 568,a799 --> 358,a800 --> 626,a801 --> 828,a802 --> 32,a803 --> 453,a804 --> 727,a805 --> 647,a806 --> 717,a807 --> 244,a808 --> 801,a809 --> 445,a810 --> 325,a811 --> 968,a812 --> 616,a813 --> 994,a814 --> 376,a815 --> 591,a816 --> 148,a817 --> 638,a818 --> 232,a819 --> 450,a820 --> 201,a821 --> 907,a822 --> 57,a823 --> 876,a824 --> 117,a825 --> 325,a826 --> 681,a827 --> 984,a828 --> 973,a829 --> 48,a830 --> 200,a831 --> 54,a832 --> 227,a833 --> 150,a834 --> 665,a835 --> 686,a836 --> 594,a837 --> 94,a838 --> 943,a839 --> 994,a840 --> 511,a841 --> 349,a842 --> 600,a843 --> 80,a844 --> 114,a845 --> 520,a846 --> 229,a847 --> 334,a848 --> 914,a849 --> 647,a850 --> 575,a851 --> 252,a852 --> 380,a853 --> 948,a854 --> 315,a855 --> 725,a856 --> 981,a857 --> 913,a858 --> 670,a859 --> 141,a860 --> 930,a861 --> 965,a862 --> 394,a863 --> 763,a864 --> 751,a865 --> 319,a866 --> 391,a867 --> 432,a868 --> 412,a869 --> 65,a870 --> 890,a871 --> 966,a872 --> 369,a873 --> 798,a874 --> 48,a875 --> 98,a876 --> 875,a877 --> 155,a878 --> 707,a879 --> 162,a880 --> 964,a881 --> 753,a882 --> 204,a883 --> 407,a884 --> 862,a885 --> 217,a886 --> 414,a887 --> 532,a888 --> 608,a889 --> 270,a890 --> 161,a891 --> 580,a892 --> 543,a893 --> 150,a894 --> 412,a895 --> 895,a896 --> 206,a897 --> 273,a898 --> 522,a899 --> 245,a900 --> 382,a901 --> 336,a902 --> 526,a903 --> 449,a904 --> 645,a905 --> 70,a906 --> 782,a907 --> 591,a908 --> 587,a909 --> 2,a910 --> 130,a911 --> 45,a912 --> 128,a913 --> 619,a914 --> 989,a915 --> 541,a916 --> 151,a917 --> 986,a918 --> 211,a919 --> 889,a920 --> 590,a921 --> 171,a922 --> 737,a923 --> 973,a924 --> 227,a925 --> 747,a926 --> 208,a927 --> 497,a928 --> 256,a929 --> 299,a930 --> 434,a931 --> 292,a932 --> 439,a933 --> 979,a934 --> 523,a935 --> 673,a936 --> 709,a937 --> 63,a938 --> 920,a939 --> 149,a940 --> 147,a941 --> 861,a942 --> 899,a943 --> 78,a944 --> 808,a945 --> 860,a946 --> 940,a947 --> 525,a948 --> 400,a949 --> 591,a950 --> 897,a951 --> 340,a952 --> 183,a953 --> 823,a954 --> 950,a955 --> 337,a956 --> 822,a957 --> 876,a958 --> 629,a959 --> 257,a960 --> 949,a961 --> 964,a962 --> 432,a963 --> 405,a964 --> 278,a965 --> 922,a966 --> 73,a967 --> 911,a968 --> 64,a969 --> 704,a970 --> 416,a971 --> 757,a972 --> 641,a973 --> 756,a974 --> 676,a975 --> 365,a976 --> 506,a977 --> 782,a978 --> 40,a979 --> 335,a980 --> 719,a981 --> 504,a982 --> 976,a983 --> 694,a984 --> 396,a985 --> 92,a986 --> 601,a987 --> 206,a988 --> 864,a989 --> 25,a990 --> 355,a991 --> 319,a992 --> 413,a993 --> 254,a994 --> 634,a995 --> 872,a996 --> 717,a997 --> 293,a998 --> 728,a999 --> 300,a1000 --> 542
)
letting gain be function (
a1 --> 786,a2 --> 1115,a3 --> 456,a4 --> 472,a5 --> 478,a6 --> 829,a7 --> 498,a8 --> 832,a9 --> 635,a10 --> 1191,a11 --> 1171,a12 --> 215,a13 --> 583,a14 --> 1122,a15 --> 283,a16 --> 840,a17 --> 370,a18 --> 670,a19 --> 887,a20 --> 306,a21 --> 486,a22 --> 547,a23 --> 672,a24 --> 864,a25 --> 893,a26 --> 683,a27 --> 604,a28 --> 732,a29 --> 594,a30 --> 1117,a31 --> 577,a32 --> 916,a33 --> 280,a34 --> 1131,a35 --> 900,a36 --> 417,a37 --> 405,a38 --> 1179,a39 --> 883,a40 --> 1104,a41 --> 768,a42 --> 1186,a43 --> 334,a44 --> 703,a45 --> 263,a46 --> 1127,a47 --> 1065,a48 --> 1113,a49 --> 385,a50 --> 330,a51 --> 1139,a52 --> 679,a53 --> 415,a54 --> 609,a55 --> 1200,a56 --> 694,a57 --> 623,a58 --> 760,a59 --> 292,a60 --> 399,a61 --> 720,a62 --> 898,a63 --> 478,a64 --> 594,a65 --> 823,a66 --> 929,a67 --> 509,a68 --> 1074,a69 --> 1065,a70 --> 738,a71 --> 1077,a72 --> 507,a73 --> 485,a74 --> 774,a75 --> 371,a76 --> 690,a77 --> 538,a78 --> 209,a79 --> 220,a80 --> 1084,a81 --> 471,a82 --> 954,a83 --> 702,a84 --> 1002,a85 --> 1125,a86 --> 225,a87 --> 886,a88 --> 747,a89 --> 468,a90 --> 459,a91 --> 366,a92 --> 906,a93 --> 790,a94 --> 649,a95 --> 384,a96 --> 347,a97 --> 981,a98 --> 336,a99 --> 365,a100 --> 561,a101 --> 353,a102 --> 426,a103 --> 1007,a104 --> 966,a105 --> 1059,a106 --> 967,a107 --> 1278,a108 --> 213,a109 --> 898,a110 --> 1069,a111 --> 1198,a112 --> 970,a113 --> 474,a114 --> 1080,a115 --> 634,a116 --> 349,a117 --> 271,a118 --> 289,a119 --> 666,a120 --> 331,a121 --> 846,a122 --> 899,a123 --> 810,a124 --> 787,a125 --> 436,a126 --> 1081,a127 --> 361,a128 --> 742,a129 --> 316,a130 --> 221,a131 --> 831,a132 --> 807,a133 --> 732,a134 --> 907,a135 --> 810,a136 --> 252,a137 --> 521,a138 --> 682,a139 --> 683,a140 --> 922,a141 --> 430,a142 --> 657,a143 --> 1026,a144 --> 276,a145 --> 480,a146 --> 315,a147 --> 413,a148 --> 755,a149 --> 741,a150 --> 619,a151 --> 693,a152 --> 215,a153 --> 1296,a154 --> 1164,a155 --> 801,a156 --> 780,a157 --> 978,a158 --> 657,a159 --> 600,a160 --> 1109,a161 --> 859,a162 --> 654,a163 --> 978,a164 --> 549,a165 --> 293,a166 --> 605,a167 --> 611,a168 --> 816,a169 --> 1266,a170 --> 1113,a171 --> 711,a172 --> 526,a173 --> 718,a174 --> 1098,a175 --> 595,a176 --> 880,a177 --> 443,a178 --> 402,a179 --> 946,a180 --> 817,a181 --> 1055,a182 --> 718,a183 --> 677,a184 --> 813,a185 --> 1181,a186 --> 678,a187 --> 433,a188 --> 996,a189 --> 508,a190 --> 619,a191 --> 957,a192 --> 264,a193 --> 874,a194 --> 684,a195 --> 1284,a196 --> 354,a197 --> 897,a198 --> 1168,a199 --> 895,a200 --> 1072,a201 --> 1156,a202 --> 654,a203 --> 292,a204 --> 966,a205 --> 822,a206 --> 797,a207 --> 431,a208 --> 928,a209 --> 1254,a210 --> 943,a211 --> 985,a212 --> 317,a213 --> 549,a214 --> 1161,a215 --> 796,a216 --> 983,a217 --> 599,a218 --> 521,a219 --> 1140,a220 --> 435,a221 --> 690,a222 --> 919,a223 --> 1176,a224 --> 317,a225 --> 1161,a226 --> 1008,a227 --> 976,a228 --> 378,a229 --> 233,a230 --> 253,a231 --> 456,a232 --> 659,a233 --> 730,a234 --> 1176,a235 --> 652,a236 --> 485,a237 --> 499,a238 --> 589,a239 --> 342,a240 --> 739,a241 --> 801,a242 --> 941,a243 --> 330,a244 --> 1056,a245 --> 756,a246 --> 726,a247 --> 1024,a248 --> 779,a249 --> 505,a250 --> 834,a251 --> 720,a252 --> 226,a253 --> 916,a254 --> 547,a255 --> 953,a256 --> 285,a257 --> 1048,a258 --> 816,a259 --> 907,a260 --> 473,a261 --> 437,a262 --> 570,a263 --> 288,a264 --> 394,a265 --> 1041,a266 --> 383,a267 --> 1146,a268 --> 1031,a269 --> 903,a270 --> 933,a271 --> 1122,a272 --> 817,a273 --> 520,a274 --> 497,a275 --> 750,a276 --> 395,a277 --> 546,a278 --> 949,a279 --> 459,a280 --> 779,a281 --> 348,a282 --> 807,a283 --> 751,a284 --> 1071,a285 --> 895,a286 --> 804,a287 --> 1140,a288 --> 313,a289 --> 407,a290 --> 658,a291 --> 1167,a292 --> 779,a293 --> 558,a294 --> 793,a295 --> 522,a296 --> 211,a297 --> 247,a298 --> 259,a299 --> 273,a300 --> 807,a301 --> 1236,a302 --> 575,a303 --> 1128,a304 --> 994,a305 --> 768,a306 --> 769,a307 --> 459,a308 --> 469,a309 --> 793,a310 --> 484,a311 --> 1224,a312 --> 522,a313 --> 1266,a314 --> 906,a315 --> 1144,a316 --> 612,a317 --> 325,a318 --> 415,a319 --> 882,a320 --> 511,a321 --> 934,a322 --> 553,a323 --> 637,a324 --> 340,a325 --> 763,a326 --> 1185,a327 --> 378,a328 --> 1095,a329 --> 709,a330 --> 412,a331 --> 287,a332 --> 1284,a333 --> 324,a334 --> 570,a335 --> 1157,a336 --> 262,a337 --> 999,a338 --> 959,a339 --> 978,a340 --> 1150,a341 --> 495,a342 --> 1140,a343 --> 283,a344 --> 340,a345 --> 705,a346 --> 953,a347 --> 915,a348 --> 695,a349 --> 708,a350 --> 1098,a351 --> 1041,a352 --> 361,a353 --> 286,a354 --> 325,a355 --> 1086,a356 --> 1077,a357 --> 275,a358 --> 966,a359 --> 384,a360 --> 1087,a361 --> 1020,a362 --> 882,a363 --> 879,a364 --> 1135,a365 --> 541,a366 --> 919,a367 --> 1143,a368 --> 1037,a369 --> 671,a370 --> 241,a371 --> 732,a372 --> 1030,a373 --> 210,a374 --> 358,a375 --> 948,a376 --> 933,a377 --> 731,a378 --> 306,a379 --> 328,a380 --> 970,a381 --> 751,a382 --> 271,a383 --> 1155,a384 --> 714,a385 --> 930,a386 --> 1050,a387 --> 689,a388 --> 1180,a389 --> 760,a390 --> 480,a391 --> 1008,a392 --> 850,a393 --> 427,a394 --> 762,a395 --> 874,a396 --> 1125,a397 --> 562,a398 --> 1164,a399 --> 360,a400 --> 324,a401 --> 390,a402 --> 913,a403 --> 420,a404 --> 725,a405 --> 697,a406 --> 1176,a407 --> 1036,a408 --> 985,a409 --> 1030,a410 --> 672,a411 --> 996,a412 --> 220,a413 --> 994,a414 --> 601,a415 --> 555,a416 --> 982,a417 --> 309,a418 --> 805,a419 --> 646,a420 --> 763,a421 --> 673,a422 --> 783,a423 --> 490,a424 --> 743,a425 --> 1169,a426 --> 1242,a427 --> 330,a428 --> 1067,a429 --> 1003,a430 --> 1062,a431 --> 495,a432 --> 245,a433 --> 546,a434 --> 714,a435 --> 858,a436 --> 219,a437 --> 1080,a438 --> 484,a439 --> 893,a440 --> 544,a441 --> 1193,a442 --> 923,a443 --> 529,a444 --> 1189,a445 --> 1049,a446 --> 468,a447 --> 1081,a448 --> 513,a449 --> 773,a450 --> 1092,a451 --> 580,a452 --> 417,a453 --> 990,a454 --> 979,a455 --> 359,a456 --> 568,a457 --> 544,a458 --> 940,a459 --> 709,a460 --> 487,a461 --> 312,a462 --> 394,a463 --> 828,a464 --> 738,a465 --> 882,a466 --> 396,a467 --> 618,a468 --> 444,a469 --> 772,a470 --> 753,a471 --> 724,a472 --> 475,a473 --> 436,a474 --> 220,a475 --> 773,a476 --> 741,a477 --> 1056,a478 --> 1104,a479 --> 429,a480 --> 400,a481 --> 413,a482 --> 473,a483 --> 742,a484 --> 742,a485 --> 568,a486 --> 745,a487 --> 586,a488 --> 1164,a489 --> 1119,a490 --> 335,a491 --> 613,a492 --> 203,a493 --> 378,a494 --> 1059,a495 --> 783,a496 --> 610,a497 --> 646,a498 --> 511,a499 --> 636,a500 --> 1061,a501 --> 1103,a502 --> 575,a503 --> 258,a504 --> 1161,a505 --> 919,a506 --> 553,a507 --> 342,a508 --> 960,a509 --> 432,a510 --> 525,a511 --> 695,a512 --> 529,a513 --> 261,a514 --> 1158,a515 --> 761,a516 --> 1194,a517 --> 749,a518 --> 1127,a519 --> 1074,a520 --> 1080,a521 --> 906,a522 --> 807,a523 --> 816,a524 --> 718,a525 --> 695,a526 --> 621,a527 --> 972,a528 --> 753,a529 --> 799,a530 --> 315,a531 --> 1188,a532 --> 648,a533 --> 222,a534 --> 870,a535 --> 430,a536 --> 881,a537 --> 682,a538 --> 852,a539 --> 966,a540 --> 635,a541 --> 807,a542 --> 348,a543 --> 943,a544 --> 822,a545 --> 558,a546 --> 1161,a547 --> 1242,a548 --> 973,a549 --> 255,a550 --> 703,a551 --> 1041,a552 --> 1198,a553 --> 762,a554 --> 708,a555 --> 381,a556 --> 424,a557 --> 449,a558 --> 672,a559 --> 480,a560 --> 483,a561 --> 983,a562 --> 480,a563 --> 771,a564 --> 219,a565 --> 810,a566 --> 1290,a567 --> 1080,a568 --> 397,a569 --> 901,a570 --> 995,a571 --> 852,a572 --> 376,a573 --> 455,a574 --> 995,a575 --> 334,a576 --> 957,a577 --> 382,a578 --> 529,a579 --> 1086,a580 --> 639,a581 --> 1008,a582 --> 1152,a583 --> 630,a584 --> 779,a585 --> 1189,a586 --> 1030,a587 --> 468,a588 --> 473,a589 --> 306,a590 --> 1156,a591 --> 685,a592 --> 324,a593 --> 255,a594 --> 667,a595 --> 299,a596 --> 733,a597 --> 1038,a598 --> 808,a599 --> 420,a600 --> 1092,a601 --> 1185,a602 --> 744,a603 --> 1260,a604 --> 541,a605 --> 1051,a606 --> 988,a607 --> 754,a608 --> 832,a609 --> 735,a610 --> 262,a611 --> 207,a612 --> 697,a613 --> 462,a614 --> 282,a615 --> 625,a616 --> 456,a617 --> 205,a618 --> 437,a619 --> 669,a620 --> 745,a621 --> 924,a622 --> 353,a623 --> 761,a624 --> 420,a625 --> 984,a626 --> 766,a627 --> 814,a628 --> 982,a629 --> 517,a630 --> 546,a631 --> 450,a632 --> 382,a633 --> 413,a634 --> 678,a635 --> 942,a636 --> 913,a637 --> 379,a638 --> 1030,a639 --> 421,a640 --> 1266,a641 --> 287,a642 --> 564,a643 --> 891,a644 --> 329,a645 --> 628,a646 --> 781,a647 --> 1074,a648 --> 208,a649 --> 316,a650 --> 366,a651 --> 256,a652 --> 304,a653 --> 318,a654 --> 1127,a655 --> 875,a656 --> 552,a657 --> 409,a658 --> 695,a659 --> 299,a660 --> 1134,a661 --> 437,a662 --> 934,a663 --> 990,a664 --> 840,a665 --> 208,a666 --> 1153,a667 --> 487,a668 --> 755,a669 --> 503,a670 --> 361,a671 --> 1150,a672 --> 783,a673 --> 808,a674 --> 647,a675 --> 1073,a676 --> 993,a677 --> 1050,a678 --> 1177,a679 --> 1038,a680 --> 786,a681 --> 768,a682 --> 1083,a683 --> 877,a684 --> 1191,a685 --> 240,a686 --> 1143,a687 --> 819,a688 --> 963,a689 --> 649,a690 --> 1117,a691 --> 625,a692 --> 597,a693 --> 1074,a694 --> 1026,a695 --> 341,a696 --> 628,a697 --> 900,a698 --> 669,a699 --> 481,a700 --> 821,a701 --> 415,a702 --> 837,a703 --> 429,a704 --> 339,a705 --> 977,a706 --> 652,a707 --> 1177,a708 --> 1144,a709 --> 900,a710 --> 654,a711 --> 239,a712 --> 904,a713 --> 696,a714 --> 810,a715 --> 981,a716 --> 996,a717 --> 882,a718 --> 583,a719 --> 833,a720 --> 564,a721 --> 654,a722 --> 708,a723 --> 1186,a724 --> 628,a725 --> 1122,a726 --> 1020,a727 --> 629,a728 --> 943,a729 --> 324,a730 --> 1038,a731 --> 642,a732 --> 623,a733 --> 1075,a734 --> 642,a735 --> 798,a736 --> 582,a737 --> 930,a738 --> 829,a739 --> 1019,a740 --> 653,a741 --> 618,a742 --> 837,a743 --> 483,a744 --> 981,a745 --> 844,a746 --> 454,a747 --> 743,a748 --> 889,a749 --> 865,a750 --> 1193,a751 --> 453,a752 --> 377,a753 --> 939,a754 --> 804,a755 --> 1014,a756 --> 1073,a757 --> 414,a758 --> 455,a759 --> 1140,a760 --> 1182,a761 --> 700,a762 --> 1189,a763 --> 892,a764 --> 319,a765 --> 1179,a766 --> 952,a767 --> 1117,a768 --> 405,a769 --> 659,a770 --> 1084,a771 --> 975,a772 --> 251,a773 --> 1149,a774 --> 1188,a775 --> 981,a776 --> 1078,a777 --> 340,a778 --> 463,a779 --> 1062,a780 --> 309,a781 --> 879,a782 --> 468,a783 --> 919,a784 --> 513,a785 --> 389,a786 --> 341,a787 --> 291,a788 --> 1158,a789 --> 983,a790 --> 607,a791 --> 201,a792 --> 804,a793 --> 864,a794 --> 1212,a795 --> 1069,a796 --> 814,a797 --> 1236,a798 --> 768,a799 --> 558,a800 --> 826,a801 --> 1128,a802 --> 232,a803 --> 653,a804 --> 927,a805 --> 847,a806 --> 917,a807 --> 444,a808 --> 1001,a809 --> 645,a810 --> 525,a811 --> 1168,a812 --> 816,a813 --> 1194,a814 --> 576,a815 --> 791,a816 --> 348,a817 --> 838,a818 --> 432,a819 --> 750,a820 --> 401,a821 --> 1107,a822 --> 257,a823 --> 1176,a824 --> 317,a825 --> 525,a826 --> 881,a827 --> 1284,a828 --> 1173,a829 --> 348,a830 --> 400,a831 --> 354,a832 --> 427,a833 --> 450,a834 --> 865,a835 --> 886,a836 --> 894,a837 --> 294,a838 --> 1143,a839 --> 1194,a840 --> 711,a841 --> 549,a842 --> 900,a843 --> 280,a844 --> 414,a845 --> 720,a846 --> 429,a847 --> 534,a848 --> 1114,a849 --> 847,a850 --> 775,a851 --> 552,a852 --> 580,a853 --> 1248,a854 --> 515,a855 --> 925,a856 --> 1181,a857 --> 1113,a858 --> 870,a859 --> 341,a860 --> 1230,a861 --> 1165,a862 --> 594,a863 --> 963,a864 --> 951,a865 --> 519,a866 --> 591,a867 --> 732,a868 --> 612,a869 --> 265,a870 --> 1090,a871 --> 1266,a872 --> 569,a873 --> 1098,a874 --> 348,a875 --> 298,a876 --> 1075,a877 --> 355,a878 --> 907,a879 --> 462,a880 --> 1164,a881 --> 953,a882 --> 504,a883 --> 607,a884 --> 1062,a885 --> 417,a886 --> 714,a887 --> 732,a888 --> 808,a889 --> 570,a890 --> 361,a891 --> 780,a892 --> 743,a893 --> 450,a894 --> 612,a895 --> 1095,a896 --> 406,a897 --> 473,a898 --> 822,a899 --> 445,a900 --> 582,a901 --> 636,a902 --> 726,a903 --> 649,a904 --> 845,a905 --> 270,a906 --> 982,a907 --> 791,a908 --> 787,a909 --> 202,a910 --> 330,a911 --> 245,a912 --> 328,a913 --> 819,a914 --> 1189,a915 --> 741,a916 --> 351,a917 --> 1186,a918 --> 411,a919 --> 1089,a920 --> 790,a921 --> 371,a922 --> 937,a923 --> 1173,a924 --> 427,a925 --> 947,a926 --> 408,a927 --> 697,a928 --> 456,a929 --> 499,a930 --> 634,a931 --> 492,a932 --> 639,a933 --> 1179,a934 --> 723,a935 --> 873,a936 --> 909,a937 --> 263,a938 --> 1120,a939 --> 349,a940 --> 347,a941 --> 1061,a942 --> 1099,a943 --> 378,a944 --> 1008,a945 --> 1060,a946 --> 1140,a947 --> 725,a948 --> 600,a949 --> 791,a950 --> 1097,a951 --> 540,a952 --> 383,a953 --> 1023,a954 --> 1150,a955 --> 537,a956 --> 1122,a957 --> 1176,a958 --> 829,a959 --> 457,a960 --> 1149,a961 --> 1164,a962 --> 732,a963 --> 605,a964 --> 478,a965 --> 1122,a966 --> 273,a967 --> 1111,a968 --> 264,a969 --> 904,a970 --> 616,a971 --> 957,a972 --> 841,a973 --> 1056,a974 --> 876,a975 --> 565,a976 --> 706,a977 --> 982,a978 --> 240,a979 --> 535,a980 --> 919,a981 --> 804,a982 --> 1176,a983 --> 894,a984 --> 696,a985 --> 292,a986 --> 801,a987 --> 406,a988 --> 1164,a989 --> 225,a990 --> 555,a991 --> 519,a992 --> 613,a993 --> 454,a994 --> 834,a995 --> 1072,a996 --> 917,a997 --> 493,a998 --> 928,a999 --> 600,a1000 --> 742
)
